Version identifier: 22.1.0.0 | 2022-03-09 | 1a383f8ce
CPXPARAM_Threads                                 1
CPXPARAM_MIP_Strategy_VariableSelect             3
CPXPARAM_TimeLimit                               600
Tried aggregator 1 time.
Reduced MIP has 920 rows, 3600 columns, and 20105 nonzeros.
Reduced MIP has 2600 binaries, 1000 generals, 0 SOSs, and 0 indicators.
Presolve time = 0.01 sec. (8.50 ticks)
Found incumbent of value 0.681000 after 0.03 sec. (21.65 ticks)
Probing time = 0.00 sec. (3.08 ticks)
Tried aggregator 1 time.
Detecting symmetries...
Reduced MIP has 920 rows, 3600 columns, and 20105 nonzeros.
Reduced MIP has 2600 binaries, 1000 generals, 0 SOSs, and 0 indicators.
Presolve time = 0.01 sec. (10.62 ticks)
Probing time = 0.00 sec. (3.08 ticks)
Clique table members: 116.
MIP emphasis: balance optimality and feasibility.
MIP search method: dynamic search.
Parallel mode: none, using 1 thread.
Root relaxation solution time = 0.18 sec. (177.10 ticks)

        Nodes                                         Cuts/
   Node  Left     Objective  IInf  Best Integer    Best Bound    ItCnt     Gap

*     0+    0                            0.6810        0.0000           100.00%
      0     0        0.0000   764        0.6810        0.0000     1755  100.00%
*     0+    0                            0.0090        0.0000           100.00%
Detecting symmetries...
      0     2        0.0000   300        0.0090        0.0000     1755  100.00%
Elapsed time = 2.63 sec. (2468.26 ticks, tree = 0.01 MB, solutions = 2)
      1     3        0.0000   341        0.0090        0.0000     5412  100.00%
      2     4        0.0000   348        0.0090        0.0000     6680  100.00%
      3     5        0.0000   363        0.0090        0.0000     8695  100.00%
      5     7        0.0000   405        0.0090        0.0000     8862  100.00%
      7     9        0.0000   321        0.0090        0.0000     9845  100.00%
      8    10       -0.0000   644        0.0090        0.0000    11564  100.00%
     10    12        0.0000   349        0.0090        0.0000    13343  100.00%
     12    14        0.0000   349        0.0090        0.0000    14260  100.00%
     14    16        0.0000   359        0.0090        0.0000    16441  100.00%
     19    21        0.0000   615        0.0090        0.0000    20629  100.00%
Elapsed time = 6.89 sec. (6648.46 ticks, tree = 0.13 MB, solutions = 2)
*    20+   20                            0.0060        0.0000           100.00%
     20    22        0.0000   361        0.0060        0.0000    20921  100.00%
     24    26        0.0000   539        0.0060        0.0000    24813  100.00%
     29    31        0.0000   550        0.0060        0.0000    30523  100.00%
     35    37        0.0000   640        0.0060        0.0000    35681  100.00%
     39    41       -0.0000   408        0.0060        0.0000    40694  100.00%
     44    46       -0.0000   388        0.0060        0.0000    43631  100.00%
     51    53        0.0002   300        0.0060        0.0000    48768  100.00%
     58    60       -0.0000   302        0.0060        0.0000    51013  100.00%
     64    66        0.0002   279        0.0060        0.0000    54060  100.00%
     75    77        0.0010   151        0.0060        0.0000    56439  100.00%
Elapsed time = 18.05 sec. (17339.88 ticks, tree = 0.57 MB, solutions = 3)
*    80+   80                            0.0040        0.0000           100.00%
*    81    75      integral     0        0.0020        0.0000    57208  100.00%
     86    79       -0.0000   285        0.0020        0.0000    58817  100.00%
     93    86       -0.0000   144        0.0020        0.0000    63216  100.00%
    102    95        0.0001   349        0.0020        0.0000    67144  100.00%
*   104    73      integral     0        0.0010        0.0000    67970  100.00%
    119    69        cutoff              0.0010        0.0000    75206  100.00%
    131    75        0.0000   353        0.0010        0.0000    79680  100.00%
    143    83    infeasible              0.0010        0.0000    84378  100.00%
    155    91       -0.0000   354        0.0010        0.0000    88178  100.00%
    166    95    infeasible              0.0010        0.0000    94705  100.00%
    178   101       -0.0000   314        0.0010        0.0000    98571  100.00%
    190   100    infeasible              0.0010        0.0000   106563  100.00%
Elapsed time = 29.06 sec. (27425.42 ticks, tree = 0.80 MB, solutions = 6)
    202   106       -0.0000   276        0.0010        0.0000   110811  100.00%
    219   110    infeasible              0.0010        0.0000   115421  100.00%
    232   107       -0.0000   152        0.0010        0.0000   124015  100.00%
    250   110       -0.0000   170        0.0010        0.0000   128551  100.00%
    268   118    infeasible              0.0010        0.0000   133770  100.00%
    291   114       -0.0000   169        0.0010        0.0000   140722  100.00%
    316   111       -0.0000   232        0.0010        0.0000   147372  100.00%
    334   117       -0.0000   180        0.0010        0.0000   153849  100.00%
    357   114        0.0000   264        0.0010        0.0000   161018  100.00%
    371   112    infeasible              0.0010        0.0000   167922  100.00%
Elapsed time = 40.60 sec. (37316.05 ticks, tree = 0.90 MB, solutions = 6)
    383   116    infeasible              0.0010        0.0000   175693  100.00%
    406   115       -0.0000   314        0.0010        0.0000   182864  100.00%
    422   119       -0.0000   230        0.0010        0.0000   187636  100.00%
    438   121       -0.0000   213        0.0010        0.0000   193997  100.00%
    459   118       -0.0000   309        0.0010        0.0000   200317  100.00%
*   466     1      integral     0        0.0000        0.0000   205690    0.00%

Mixed integer rounding cuts applied:  1

Root node processing (before b&c):
  Real time             =    2.63 sec. (2468.36 ticks)
Sequential b&c:
  Real time             =   44.64 sec. (40735.36 ticks)
                          ------------
Total (root+branch&cut) =   47.27 sec. (43203.71 ticks)
Primal number of violations:	0
Dual number of violations:	0
Status:	Optimal
Time:	47.27
Sequence:
	16
	19
	3
	5
	14
	1
	5
	17
	12
	16
	17
	2
	16
	19
	0
	5
	9
	4
	18
	7
	13
	10
	9
	15
	10
	9
	4
	10
	9
	4
	3
	8
	1
	15
	11
	1
	13
	11
	3
	13
	8
	3
	4
	18
	9
	15
	10
	1
	19
	5
	6
	14
	5
	12
	17
	10
	12
	14
	5
	0
	19
	5
	6
	19
	5
	0
	13
	9
	5
	15
	1
	8
	15
	6
	8
	13
	2
	11
	13
	1
	11
	15
	1
	8
	4
	6
	16
	14
	2
	5
	14
	12
	5
	17
	12
	16
	17
	2
	16
	19
